48
1000
200	1
199	3
198	3
197	2
195	3
193	3
192	3
191	4
190	1
189	1
188	2
187	1
186	1
185	3
184	2
183	1
182	1
181	1
180	1
179	3
178	3
177	5
176	1
175	3
174	1
173	7
172	1
171	2
170	2
169	2
168	2
166	3
165	1
164	2
163	2
162	3
161	4
160	2
159	4
158	2
157	1
156	10
155	3
154	5
153	2
152	2
151	2
150	3
